20180612 25 0 0 0
20170518 80 0 0 0
20160516 60 0 0 0
20150914 240 20000 0 0
20150528 280 0 0 0
20140512 250 0 0 0
20130520 300 0 0 0
20120924 100 0 0 0
20120510 200 0 0 0
20110428 500 5000 0 0
20090506 400 0 0 0
20080514 450 0 0 0
20070518 400 0 0 0
20060803 0 3300 0 0
20060518 250 0 0 0
20050531 300 0 0 0
20040517 300 0 0 0
20030523 300 0 0 0
20020521 300 0 0 0
